InboundTrucks  = 8;
OutboundTrucks = 5;
InboundDoors   = 4;
OutboundDoors  = 4;
ReleaseTime    = [74,108,24,116,69,118,45,59];
UnloadTime     = [13,42,23,24,28,41,23,31];
LoadTime       = [19,7,13,11,10];
TransferTime   = [| 14,37,39,0,0 | 0,0,0,27,0 | 0,0,37,0,39 | 0,0,0,33,33 | 10,0,46,0,0 | 0,0,27,0,0 | 0,0,0,46,40 | 0,0,0,21,0 |];
